p tw 2573 4036
1 2
1 99
1 100
3 4
3 100
3 101
5 6
5 132
7 8
7 133
9 10
9 102
9 103
11 12
11 103
11 104
13 14
13 134
15 16
15 135
17 18
17 136
19 20
19 105
19 106
21 22
21 106
21 107
23 24
23 137
25 26
25 138
27 28
27 139
29 30
29 108
29 109
31 32
31 109
31 110
33 34
33 140
35 36
35 141
37 38
37 111
37 112
39 40
39 112
39 113
41 42
41 142
43 44
43 143
45 46
45 144
47 48
47 114
47 115
49 50
49 115
49 116
51 52
51 145
53 54
53 146
55 56
55 147
57 58
57 117
57 118
59 60
59 118
59 119
61 62
61 148
63 64
63 149
65 66
65 120
65 121
67 68
67 121
67 122
69 70
69 150
71 72
71 151
73 74
73 152
75 76
75 123
75 124
77 78
77 124
77 125
79 80
79 153
81 82
81 154
83 84
83 155
85 86
85 126
85 127
87 88
87 127
87 128
89 90
89 156
91 92
91 157
93 94
93 129
93 130
95 96
95 130
95 131
97 98
97 158
99 100
99 192
100 101
101 193
102 103
102 194
103 104
104 195
105 106
105 168
105 169
106 107
107 196
108 109
108 160
108 161
109 110
110 197
111 112
111 178
111 179
112 113
113 198
114 115
114 199
115 116
116 174
116 175
117 118
117 200
118 119
119 166
119 167
120 121
120 201
121 122
122 184
122 185
123 124
123 171
123 172
124 125
125 202
126 127
126 163
126 164
127 128
128 203
129 130
129 181
129 182
130 131
131 204
132 206
132 207
133 308
133 309
134 209
134 210
135 159
135 160
136 311
136 312
137 177
137 178
138 314
138 315
139 186
139 187
140 169
140 170
141 271
141 272
142 187
142 188
143 319
143 320
144 165
144 166
145 221
145 222
146 183
146 184
147 387
147 388
148 224
148 225
149 175
149 176
150 227
150 228
151 162
151 163
152 329
152 330
153 180
153 181
154 332
154 333
155 189
155 190
156 172
156 173
157 335
157 336
158 190
158 191
159 160
159 240
160 161
161 243
162 163
162 251
163 164
164 254
165 166
165 245
166 167
167 223
167 224
168 169
168 241
169 170
170 215
170 216
171 172
171 252
172 173
173 233
173 234
174 175
174 220
174 221
175 176
176 249
177 178
177 212
177 213
178 179
179 244
180 181
180 230
180 231
181 182
182 255
183 184
183 247
184 185
185 226
185 227
186 187
186 242
187 188
188 218
188 219
189 190
189 253
190 191
191 236
191 237
192 238
193 205
193 206
194 239
195 208
195 209
196 211
196 212
197 214
197 215
198 217
198 218
199 246
200 248
201 250
202 229
202 230
203 232
203 233
204 235
204 236
205 206
205 289
206 207
207 265
207 266
208 209
208 290
209 210
210 283
210 284
211 212
211 291
212 213
213 275
213 276
214 215
214 262
214 263
215 216
216 293
217 218
217 280
217 281
218 219
219 295
220 221
220 272
220 273
221 222
222 296
223 224
223 297
224 225
225 268
225 269
226 227
226 299
227 228
228 286
228 287
229 230
229 300
230 231
231 278
231 279
232 233
232 302
233 234
234 303
235 236
235 305
236 237
237 306
238 256
238 257
239 274
239 275
240 257
240 258
241 266
241 267
242 284
242 285
243 292
244 294
245 263
245 264
246 369
246 370
247 281
247 282
248 259
248 260
249 298
250 277
250 278
251 260
251 261
252 269
252 270
253 287
253 288
254 301
255 304
256 257
256 337
257 258
258 310
258 311
259 260
259 349
260 261
261 328
261 329
262 263
262 345
263 264
264 320
264 321
265 266
265 307
265 308
266 267
267 342
268 269
268 325
268 326
269 270
270 354
271 272
271 317
271 318
272 273
273 348
274 275
274 339
275 276
276 313
276 314
277 278
277 351
278 279
279 331
279 332
280 281
280 346
281 282
282 323
282 324
283 284
283 341
284 285
285 344
286 287
286 353
287 288
288 356
289 338
290 340
291 343
292 457
292 458
293 316
293 317
294 419
294 420
295 347
296 322
296 323
297 350
298 326
298 327
299 352
300 355
301 532
301 533
302 357
303 334
303 335
304 437
304 438
305 358
306 359
307 308
307 391
308 309
309 392
310 311
310 395
311 312
312 363
312 364
313 314
313 397
314 315
315 381
315 382
316 317
316 399
317 318
318 373
318 374
319 320
319 360
319 361
320 321
321 400
322 323
322 378
322 379
323 324
324 402
325 326
325 370
325 371
326 327
327 403
328 329
328 404
329 330
330 366
330 367
331 332
331 406
332 333
333 384
333 385
334 335
334 408
335 336
336 376
336 377
337 390
338 460
338 461
339 393
340 478
340 479
341 394
342 396
343 372
343 373
344 398
345 364
345 365
346 382
346 383
347 484
347 485
348 401
349 361
349 362
350 463
350 464
351 379
351 380
352 481
352 482
353 388
353 389
354 405
355 375
355 376
356 407
357 367
357 368
358 385
358 386
359 586
359 587
360 361
360 446
361 362
362 448
363 364
363 412
363 413
364 365
365 443
366 367
366 430
366 431
367 368
368 454
369 370
369 422
369 423
370 371
371 449
372 373
372 441
373 374
374 418
374 419
375 376
375 452
376 377
377 436
377 437
378 379
378 447
379 380
380 428
380 429
381 382
381 415
381 416
382 383
383 445
384 385
384 433
384 434
385 386
386 456
387 388
387 425
387 426
388 389
389 450
390 505
390 506
391 439
392 409
392 410
393 410
393 411
394 613
394 614
395 440
396 413
396 414
397 442
398 416
398 417
399 444
400 421
400 422
401 521
401 522
402 424
402 425
403 427
403 428
404 451
405 431
405 432
406 453
407 434
407 435
408 455
409 410
409 469
409 470
410 411
411 487
412 413
412 461
412 462
413 414
414 488
415 416
415 479
415 480
416 417
417 489
418 419
418 491
419 420
420 475
420 476
421 422
421 493
422 423
423 467
423 468
424 425
424 494
425 426
426 485
426 486
427 428
427 472
427 473
428 429
429 497
430 431
430 464
430 465
431 432
432 499
433 434
433 482
433 483
434 435
435 500
436 437
436 502
437 438
438 503
439 610
439 611
440 555
440 556
441 470
441 471
442 573
442 574
443 490
444 466
444 467
445 492
446 458
446 459
447 476
447 477
448 495
449 496
450 498
451 558
451 559
452 473
452 474
453 576
453 577
454 501
455 568
455 569
456 504
457 458
457 514
457 515
458 459
459 545
460 461
460 506
460 507
461 462
462 539
463 464
463 524
463 525
464 465
465 551
466 467
466 542
467 468
468 520
468 521
469 470
469 538
470 471
471 512
471 513
472 473
472 550
473 474
474 530
474 531
475 476
475 517
475 518
476 477
477 547
478 479
478 509
478 510
479 480
480 540
481 482
481 527
481 528
482 483
483 552
484 485
484 544
485 486
486 549
487 508
487 509
488 511
488 512
489 541
490 515
490 516
491 543
492 518
492 519
493 546
494 548
495 523
495 524
496 628
496 629
497 526
497 527
498 631
498 632
499 529
499 530
500 553
501 533
501 534
502 554
503 535
503 536
504 536
504 537
505 506
505 588
506 507
507 589
508 509
508 591
509 510
510 592
511 512
511 564
511 565
512 513
513 594
514 515
514 556
514 557
515 516
516 596
517 518
517 574
517 575
518 519
519 597
520 521
520 599
521 522
522 570
522 571
523 524
523 602
524 525
525 562
525 563
526 527
526 603
527 528
528 580
528 581
529 530
529 567
529 568
530 531
531 605
532 533
532 559
532 560
533 534
534 607
535 536
535 577
535 578
536 537
537 608
538 590
539 593
540 595
541 582
541 583
542 565
542 566
543 675
543 676
544 583
544 584
545 598
546 561
546 562
547 600
548 579
548 580
549 601
550 571
550 572
551 604
552 606
553 585
553 586
554 739
554 740
555 556
555 644
556 557
557 647
558 559
558 655
559 560
560 658
561 562
561 649
562 563
563 627
563 628
564 565
564 645
565 566
566 619
566 620
567 568
567 656
568 569
569 637
569 638
570 571
570 624
570 625
571 572
572 653
573 574
573 616
573 617
574 575
575 648
576 577
576 634
576 635
577 578
578 659
579 580
579 651
580 581
581 630
581 631
582 583
582 646
583 584
584 622
584 623
585 586
585 657
586 587
587 640
587 641
588 642
589 609
589 610
590 712
590 713
591 643
592 612
592 613
593 715
593 716
594 615
594 616
595 718
595 719
596 618
596 619
597 621
597 622
598 723
598 724
599 650
600 625
600 626
601 791
601 792
602 652
603 654
604 733
604 734
605 633
605 634
606 736
606 737
607 636
607 637
608 639
608 640
609 610
609 693
610 611
611 669
611 670
612 613
612 694
613 614
614 687
614 688
615 616
615 695
616 617
617 679
617 680
618 619
618 666
618 667
619 620
620 697
621 622
621 684
621 685
622 623
623 699
624 625
624 676
624 677
625 626
626 700
627 628
627 701
628 629
629 672
629 673
630 631
630 703
631 632
632 690
632 691
633 634
633 704
634 635
635 682
635 683
636 637
636 706
637 638
638 707
639 640
639 709
640 641
641 710
642 660
642 661
643 678
643 679
644 661
644 662
645 670
645 671
646 688
646 689
647 696
648 698
649 667
649 668
650 773
650 774
651 685
651 686
652 663
652 664
653 702
654 681
654 682
655 664
655 665
656 673
656 674
657 691
657 692
658 705
659 708
660 661
660 741
661 662
662 714
662 715
663 664
663 753
664 665
665 732
665 733
666 667
666 749
667 668
668 724
668 725
669 670
669 711
669 712
670 671
671 746
672 673
672 729
672 730
673 674
674 758
675 676
675 721
675 722
676 677
677 752
678 679
678 743
679 680
680 717
680 718
681 682
681 755
682 683
683 735
683 736
684 685
684 750
685 686
686 727
686 728
687 688
687 745
688 689
689 748
690 691
690 757
691 692
692 760
693 742
694 744
695 747
696 861
696 862
697 720
697 721
698 823
698 824
699 751
700 726
700 727
701 754
702 730
702 731
703 756
704 759
705 936
705 937
706 761
707 738
707 739
708 841
708 842
709 762
710 763
711 712
711 795
712 713
713 796
714 715
714 799
715 716
716 767
716 768
717 718
717 801
718 719
719 785
719 786
720 721
720 803
721 722
722 777
722 778
723 724
723 764
723 765
724 725
725 804
726 727
726 782
726 783
727 728
728 806
729 730
729 774
729 775
730 731
731 807
732 733
732 808
733 734
734 770
734 771
735 736
735 810
736 737
737 788
737 789
738 739
738 812
739 740
740 780
740 781
741 794
742 864
742 865
743 797
744 882
744 883
745 798
746 800
747 776
747 777
748 802
749 768
749 769
750 786
750 787
751 888
751 889
752 805
753 765
753 766
754 867
754 868
755 783
755 784
756 885
756 886
757 792
757 793
758 809
759 779
759 780
760 811
761 771
761 772
762 789
762 790
763 990
763 991
764 765
764 850
765 766
766 852
767 768
767 816
767 817
768 769
769 847
770 771
770 834
770 835
771 772
772 858
773 774
773 826
773 827
774 775
775 853
776 777
776 845
777 778
778 822
778 823
779 780
779 856
780 781
781 840
781 841
782 783
782 851
783 784
784 832
784 833
785 786
785 819
785 820
786 787
787 849
788 789
788 837
788 838
789 790
790 860
791 792
791 829
791 830
792 793
793 854
794 909
794 910
795 843
796 813
796 814
797 814
797 815
798 1017
798 1018
799 844
800 817
800 818
801 846
802 820
802 821
803 848
804 825
804 826
805 925
805 926
806 828
806 829
807 831
807 832
808 855
809 835
809 836
810 857
811 838
811 839
812 859
813 814
813 873
813 874
814 815
815 891
816 817
816 865
816 866
817 818
818 892
819 820
819 883
819 884
820 821
821 893
822 823
822 895
823 824
824 879
824 880
825 826
825 897
826 827
827 871
827 872
828 829
828 898
829 830
830 889
830 890
831 832
831 876
831 877
832 833
833 901
834 835
834 868
834 869
835 836
836 903
837 838
837 886
837 887
838 839
839 904
840 841
840 906
841 842
842 907
843 1014
843 1015
844 959
844 960
845 874
845 875
846 977
846 978
847 894
848 870
848 871
849 896
850 862
850 863
851 880
851 881
852 899
853 900
854 902
855 962
855 963
856 877
856 878
857 980
857 981
858 905
859 972
859 973
860 908
861 862
861 918
861 919
862 863
863 949
864 865
864 910
864 911
865 866
866 943
867 868
867 928
867 929
868 869
869 955
870 871
870 946
871 872
872 924
872 925
873 874
873 942
874 875
875 916
875 917
876 877
876 954
877 878
878 934
878 935
879 880
879 921
879 922
880 881
881 951
882 883
882 913
882 914
883 884
884 944
885 886
885 931
885 932
886 887
887 956
888 889
888 948
889 890
890 953
891 912
891 913
892 915
892 916
893 945
894 919
894 920
895 947
896 922
896 923
897 950
898 952
899 927
899 928
900 1032
900 1033
901 930
901 931
902 1035
902 1036
903 933
903 934
904 957
905 937
905 938
906 958
907 939
907 940
908 940
908 941
909 910
909 992
910 911
911 993
912 913
912 995
913 914
914 996
915 916
915 968
915 969
916 917
917 998
918 919
918 960
918 961
919 920
920 1000
921 922
921 978
921 979
922 923
923 1001
924 925
924 1003
925 926
926 974
926 975
927 928
927 1006
928 929
929 966
929 967
930 931
930 1007
931 932
932 984
932 985
933 934
933 971
933 972
934 935
935 1009
936 937
936 963
936 964
937 938
938 1011
939 940
939 981
939 982
940 941
941 1012
942 994
943 997
944 999
945 986
945 987
946 969
946 970
947 1079
947 1080
948 987
948 988
949 1002
950 965
950 966
951 1004
952 983
952 984
953 1005
954 975
954 976
955 1008
956 1010
957 989
957 990
958 1143
958 1144
959 960
959 1048
960 961
961 1051
962 963
962 1059
963 964
964 1062
965 966
965 1053
966 967
967 1031
967 1032
968 969
968 1049
969 970
970 1023
970 1024
971 972
971 1060
972 973
973 1041
973 1042
974 975
974 1028
974 1029
975 976
976 1057
977 978
977 1020
977 1021
978 979
979 1052
980 981
980 1038
980 1039
981 982
982 1063
983 984
983 1055
984 985
985 1034
985 1035
986 987
986 1050
987 988
988 1026
988 1027
989 990
989 1061
990 991
991 1044
991 1045
992 1046
993 1013
993 1014
994 1116
994 1117
995 1047
996 1016
996 1017
997 1119
997 1120
998 1019
998 1020
999 1122
999 1123
1000 1022
1000 1023
1001 1025
1001 1026
1002 1127
1002 1128
1003 1054
1004 1029
1004 1030
1005 1195
1005 1196
1006 1056
1007 1058
1008 1137
1008 1138
1009 1037
1009 1038
1010 1140
1010 1141
1011 1040
1011 1041
1012 1043
1012 1044
1013 1014
1013 1097
1014 1015
1015 1073
1015 1074
1016 1017
1016 1098
1017 1018
1018 1091
1018 1092
1019 1020
1019 1099
1020 1021
1021 1083
1021 1084
1022 1023
1022 1070
1022 1071
1023 1024
1024 1101
1025 1026
1025 1088
1025 1089
1026 1027
1027 1103
1028 1029
1028 1080
1028 1081
1029 1030
1030 1104
1031 1032
1031 1105
1032 1033
1033 1076
1033 1077
1034 1035
1034 1107
1035 1036
1036 1094
1036 1095
1037 1038
1037 1108
1038 1039
1039 1086
1039 1087
1040 1041
1040 1110
1041 1042
1042 1111
1043 1044
1043 1113
1044 1045
1045 1114
1046 1064
1046 1065
1047 1082
1047 1083
1048 1065
1048 1066
1049 1074
1049 1075
1050 1092
1050 1093
1051 1100
1052 1102
1053 1071
1053 1072
1054 1177
1054 1178
1055 1089
1055 1090
1056 1067
1056 1068
1057 1106
1058 1085
1058 1086
1059 1068
1059 1069
1060 1077
1060 1078
1061 1095
1061 1096
1062 1109
1063 1112
1064 1065
1064 1145
1065 1066
1066 1118
1066 1119
1067 1068
1067 1157
1068 1069
1069 1136
1069 1137
1070 1071
1070 1153
1071 1072
1072 1128
1072 1129
1073 1074
1073 1115
1073 1116
1074 1075
1075 1150
1076 1077
1076 1133
1076 1134
1077 1078
1078 1162
1079 1080
1079 1125
1079 1126
1080 1081
1081 1156
1082 1083
1082 1147
1083 1084
1084 1121
1084 1122
1085 1086
1085 1159
1086 1087
1087 1139
1087 1140
1088 1089
1088 1154
1089 1090
1090 1131
1090 1132
1091 1092
1091 1149
1092 1093
1093 1152
1094 1095
1094 1161
1095 1096
1096 1164
1097 1146
1098 1148
1099 1151
1100 1265
1100 1266
1101 1124
1101 1125
1102 1227
1102 1228
1103 1155
1104 1130
1104 1131
1105 1158
1106 1134
1106 1135
1107 1160
1108 1163
1109 1340
1109 1341
1110 1165
1111 1142
1111 1143
1112 1245
1112 1246
1113 1166
1114 1167
1115 1116
1115 1199
1116 1117
1117 1200
1118 1119
1118 1203
1119 1120
1120 1171
1120 1172
1121 1122
1121 1205
1122 1123
1123 1189
1123 1190
1124 1125
1124 1207
1125 1126
1126 1181
1126 1182
1127 1128
1127 1168
1127 1169
1128 1129
1129 1208
1130 1131
1130 1186
1130 1187
1131 1132
1132 1210
1133 1134
1133 1178
1133 1179
1134 1135
1135 1211
1136 1137
1136 1212
1137 1138
1138 1174
1138 1175
1139 1140
1139 1214
1140 1141
1141 1192
1141 1193
1142 1143
1142 1216
1143 1144
1144 1184
1144 1185
1145 1198
1146 1268
1146 1269
1147 1201
1148 1286
1148 1287
1149 1202
1150 1204
1151 1180
1151 1181
1152 1206
1153 1172
1153 1173
1154 1190
1154 1191
1155 1292
1155 1293
1156 1209
1157 1169
1157 1170
1158 1271
1158 1272
1159 1187
1159 1188
1160 1289
1160 1290
1161 1196
1161 1197
1162 1213
1163 1183
1163 1184
1164 1215
1165 1175
1165 1176
1166 1193
1166 1194
1167 1394
1167 1395
1168 1169
1168 1254
1169 1170
1170 1256
1171 1172
1171 1220
1171 1221
1172 1173
1173 1251
1174 1175
1174 1238
1174 1239
1175 1176
1176 1262
1177 1178
1177 1230
1177 1231
1178 1179
1179 1257
1180 1181
1180 1249
1181 1182
1182 1226
1182 1227
1183 1184
1183 1260
1184 1185
1185 1244
1185 1245
1186 1187
1186 1255
1187 1188
1188 1236
1188 1237
1189 1190
1189 1223
1189 1224
1190 1191
1191 1253
1192 1193
1192 1241
1192 1242
1193 1194
1194 1264
1195 1196
1195 1233
1195 1234
1196 1197
1197 1258
1198 1313
1198 1314
1199 1247
1200 1217
1200 1218
1201 1218
1201 1219
1202 1421
1202 1422
1203 1248
1204 1221
1204 1222
1205 1250
1206 1224
1206 1225
1207 1252
1208 1229
1208 1230
1209 1329
1209 1330
1210 1232
1210 1233
1211 1235
1211 1236
1212 1259
1213 1239
1213 1240
1214 1261
1215 1242
1215 1243
1216 1263
1217 1218
1217 1277
1217 1278
1218 1219
1219 1295
1220 1221
1220 1269
1220 1270
1221 1222
1222 1296
1223 1224
1223 1287
1223 1288
1224 1225
1225 1297
1226 1227
1226 1299
1227 1228
1228 1283
1228 1284
1229 1230
1229 1301
1230 1231
1231 1275
1231 1276
1232 1233
1232 1302
1233 1234
1234 1293
1234 1294
1235 1236
1235 1280
1235 1281
1236 1237
1237 1305
1238 1239
1238 1272
1238 1273
1239 1240
1240 1307
1241 1242
1241 1290
1241 1291
1242 1243
1243 1308
1244 1245
1244 1310
1245 1246
1246 1311
1247 1418
1247 1419
1248 1363
1248 1364
1249 1278
1249 1279
1250 1381
1250 1382
1251 1298
1252 1274
1252 1275
1253 1300
1254 1266
1254 1267
1255 1284
1255 1285
1256 1303
1257 1304
1258 1306
1259 1366
1259 1367
1260 1281
1260 1282
1261 1384
1261 1385
1262 1309
1263 1376
1263 1377
1264 1312
1265 1266
1265 1322
1265 1323
1266 1267
1267 1353
1268 1269
1268 1314
1268 1315
1269 1270
1270 1347
1271 1272
1271 1332
1271 1333
1272 1273
1273 1359
1274 1275
1274 1350
1275 1276
1276 1328
1276 1329
1277 1278
1277 1346
1278 1279
1279 1320
1279 1321
1280 1281
1280 1358
1281 1282
1282 1338
1282 1339
1283 1284
1283 1325
1283 1326
1284 1285
1285 1355
1286 1287
1286 1317
1286 1318
1287 1288
1288 1348
1289 1290
1289 1335
1289 1336
1290 1291
1291 1360
1292 1293
1292 1352
1293 1294
1294 1357
1295 1316
1295 1317
1296 1319
1296 1320
1297 1349
1298 1323
1298 1324
1299 1351
1300 1326
1300 1327
1301 1354
1302 1356
1303 1331
1303 1332
1304 1436
1304 1437
1305 1334
1305 1335
1306 1439
1306 1440
1307 1337
1307 1338
1308 1361
1309 1341
1309 1342
1310 1362
1311 1343
1311 1344
1312 1344
1312 1345
1313 1314
1313 1396
1314 1315
1315 1397
1316 1317
1316 1399
1317 1318
1318 1400
1319 1320
1319 1372
1319 1373
1320 1321
1321 1402
1322 1323
1322 1364
1322 1365
1323 1324
1324 1404
1325 1326
1325 1382
1325 1383
1326 1327
1327 1405
1328 1329
1328 1407
1329 1330
1330 1378
1330 1379
1331 1332
1331 1410
1332 1333
1333 1370
1333 1371
1334 1335
1334 1411
1335 1336
1336 1388
1336 1389
1337 1338
1337 1375
1337 1376
1338 1339
1339 1413
1340 1341
1340 1367
1340 1368
1341 1342
1342 1415
1343 1344
1343 1385
1343 1386
1344 1345
1345 1416
1346 1398
1347 1401
1348 1403
1349 1390
1349 1391
1350 1373
1350 1374
1351 1483
1351 1484
1352 1391
1352 1392
1353 1406
1354 1369
1354 1370
1355 1408
1356 1387
1356 1388
1357 1409
1358 1379
1358 1380
1359 1412
1360 1414
1361 1393
1361 1394
1362 1547
1362 1548
1363 1364
1363 1452
1364 1365
1365 1455
1366 1367
1366 1463
1367 1368
1368 1466
1369 1370
1369 1457
1370 1371
1371 1435
1371 1436
1372 1373
1372 1453
1373 1374
1374 1427
1374 1428
1375 1376
1375 1464
1376 1377
1377 1445
1377 1446
1378 1379
1378 1432
1378 1433
1379 1380
1380 1461
1381 1382
1381 1424
1381 1425
1382 1383
1383 1456
1384 1385
1384 1442
1384 1443
1385 1386
1386 1467
1387 1388
1387 1459
1388 1389
1389 1438
1389 1439
1390 1391
1390 1454
1391 1392
1392 1430
1392 1431
1393 1394
1393 1465
1394 1395
1395 1448
1395 1449
1396 1450
1397 1417
1397 1418
1398 1520
1398 1521
1399 1451
1400 1420
1400 1421
1401 1523
1401 1524
1402 1423
1402 1424
1403 1526
1403 1527
1404 1426
1404 1427
1405 1429
1405 1430
1406 1531
1406 1532
1407 1458
1408 1433
1408 1434
1409 1599
1409 1600
1410 1460
1411 1462
1412 1541
1412 1542
1413 1441
1413 1442
1414 1544
1414 1545
1415 1444
1415 1445
1416 1447
1416 1448
1417 1418
1417 1501
1418 1419
1419 1477
1419 1478
1420 1421
1420 1502
1421 1422
1422 1495
1422 1496
1423 1424
1423 1503
1424 1425
1425 1487
1425 1488
1426 1427
1426 1474
1426 1475
1427 1428
1428 1505
1429 1430
1429 1492
1429 1493
1430 1431
1431 1507
1432 1433
1432 1484
1432 1485
1433 1434
1434 1508
1435 1436
1435 1509
1436 1437
1437 1480
1437 1481
1438 1439
1438 1511
1439 1440
1440 1498
1440 1499
1441 1442
1441 1512
1442 1443
1443 1490
1443 1491
1444 1445
1444 1514
1445 1446
1446 1515
1447 1448
1447 1517
1448 1449
1449 1518
1450 1468
1450 1469
1451 1486
1451 1487
1452 1469
1452 1470
1453 1478
1453 1479
1454 1496
1454 1497
1455 1504
1456 1506
1457 1475
1457 1476
1458 1581
1458 1582
1459 1493
1459 1494
1460 1471
1460 1472
1461 1510
1462 1489
1462 1490
1463 1472
1463 1473
1464 1481
1464 1482
1465 1499
1465 1500
1466 1513
1467 1516
1468 1469
1468 1549
1469 1470
1470 1522
1470 1523
1471 1472
1471 1561
1472 1473
1473 1540
1473 1541
1474 1475
1474 1557
1475 1476
1476 1532
1476 1533
1477 1478
1477 1519
1477 1520
1478 1479
1479 1554
1480 1481
1480 1537
1480 1538
1481 1482
1482 1566
1483 1484
1483 1529
1483 1530
1484 1485
1485 1560
1486 1487
1486 1551
1487 1488
1488 1525
1488 1526
1489 1490
1489 1563
1490 1491
1491 1543
1491 1544
1492 1493
1492 1558
1493 1494
1494 1535
1494 1536
1495 1496
1495 1553
1496 1497
1497 1556
1498 1499
1498 1565
1499 1500
1500 1568
1501 1550
1502 1552
1503 1555
1504 1669
1504 1670
1505 1528
1505 1529
1506 1631
1506 1632
1507 1559
1508 1534
1508 1535
1509 1562
1510 1538
1510 1539
1511 1564
1512 1567
1513 1744
1513 1745
1514 1569
1515 1546
1515 1547
1516 1649
1516 1650
1517 1570
1518 1571
1519 1520
1519 1603
1520 1521
1521 1604
1522 1523
1522 1607
1523 1524
1524 1575
1524 1576
1525 1526
1525 1609
1526 1527
1527 1593
1527 1594
1528 1529
1528 1611
1529 1530
1530 1585
1530 1586
1531 1532
1531 1572
1531 1573
1532 1533
1533 1612
1534 1535
1534 1590
1534 1591
1535 1536
1536 1614
1537 1538
1537 1582
1537 1583
1538 1539
1539 1615
1540 1541
1540 1616
1541 1542
1542 1578
1542 1579
1543 1544
1543 1618
1544 1545
1545 1596
1545 1597
1546 1547
1546 1620
1547 1548
1548 1588
1548 1589
1549 1602
1550 1672
1550 1673
1551 1605
1552 1690
1552 1691
1553 1606
1554 1608
1555 1584
1555 1585
1556 1610
1557 1576
1557 1577
1558 1594
1558 1595
1559 1696
1559 1697
1560 1613
1561 1573
1561 1574
1562 1675
1562 1676
1563 1591
1563 1592
1564 1693
1564 1694
1565 1600
1565 1601
1566 1617
1567 1587
1567 1588
1568 1619
1569 1579
1569 1580
1570 1597
1570 1598
1571 1798
1571 1799
1572 1573
1572 1658
1573 1574
1574 1660
1575 1576
1575 1624
1575 1625
1576 1577
1577 1655
1578 1579
1578 1642
1578 1643
1579 1580
1580 1666
1581 1582
1581 1634
1581 1635
1582 1583
1583 1661
1584 1585
1584 1653
1585 1586
1586 1630
1586 1631
1587 1588
1587 1664
1588 1589
1589 1648
1589 1649
1590 1591
1590 1659
1591 1592
1592 1640
1592 1641
1593 1594
1593 1627
1593 1628
1594 1595
1595 1657
1596 1597
1596 1645
1596 1646
1597 1598
1598 1668
1599 1600
1599 1637
1599 1638
1600 1601
1601 1662
1602 1717
1602 1718
1603 1651
1604 1621
1604 1622
1605 1622
1605 1623
1606 1825
1606 1826
1607 1652
1608 1625
1608 1626
1609 1654
1610 1628
1610 1629
1611 1656
1612 1633
1612 1634
1613 1733
1613 1734
1614 1636
1614 1637
1615 1639
1615 1640
1616 1663
1617 1643
1617 1644
1618 1665
1619 1646
1619 1647
1620 1667
1621 1622
1621 1681
1621 1682
1622 1623
1623 1699
1624 1625
1624 1673
1624 1674
1625 1626
1626 1700
1627 1628
1627 1691
1627 1692
1628 1629
1629 1701
1630 1631
1630 1703
1631 1632
1632 1687
1632 1688
1633 1634
1633 1705
1634 1635
1635 1679
1635 1680
1636 1637
1636 1706
1637 1638
1638 1697
1638 1698
1639 1640
1639 1684
1639 1685
1640 1641
1641 1709
1642 1643
1642 1676
1642 1677
1643 1644
1644 1711
1645 1646
1645 1694
1645 1695
1646 1647
1647 1712
1648 1649
1648 1714
1649 1650
1650 1715
1651 1822
1651 1823
1652 1767
1652 1768
1653 1682
1653 1683
1654 1785
1654 1786
1655 1702
1656 1678
1656 1679
1657 1704
1658 1670
1658 1671
1659 1688
1659 1689
1660 1707
1661 1708
1662 1710
1663 1770
1663 1771
1664 1685
1664 1686
1665 1788
1665 1789
1666 1713
1667 1780
1667 1781
1668 1716
1669 1670
1669 1726
1669 1727
1670 1671
1671 1757
1672 1673
1672 1718
1672 1719
1673 1674
1674 1751
1675 1676
1675 1736
1675 1737
1676 1677
1677 1763
1678 1679
1678 1754
1679 1680
1680 1732
1680 1733
1681 1682
1681 1750
1682 1683
1683 1724
1683 1725
1684 1685
1684 1762
1685 1686
1686 1742
1686 1743
1687 1688
1687 1729
1687 1730
1688 1689
1689 1759
1690 1691
1690 1721
1690 1722
1691 1692
1692 1752
1693 1694
1693 1739
1693 1740
1694 1695
1695 1764
1696 1697
1696 1756
1697 1698
1698 1761
1699 1720
1699 1721
1700 1723
1700 1724
1701 1753
1702 1727
1702 1728
1703 1755
1704 1730
1704 1731
1705 1758
1706 1760
1707 1735
1707 1736
1708 1840
1708 1841
1709 1738
1709 1739
1710 1843
1710 1844
1711 1741
1711 1742
1712 1765
1713 1745
1713 1746
1714 1766
1715 1747
1715 1748
1716 1748
1716 1749
1717 1718
1717 1800
1718 1719
1719 1801
1720 1721
1720 1803
1721 1722
1722 1804
1723 1724
1723 1776
1723 1777
1724 1725
1725 1806
1726 1727
1726 1768
1726 1769
1727 1728
1728 1808
1729 1730
1729 1786
1729 1787
1730 1731
1731 1809
1732 1733
1732 1811
1733 1734
1734 1782
1734 1783
1735 1736
1735 1814
1736 1737
1737 1774
1737 1775
1738 1739
1738 1815
1739 1740
1740 1792
1740 1793
1741 1742
1741 1779
1741 1780
1742 1743
1743 1817
1744 1745
1744 1771
1744 1772
1745 1746
1746 1819
1747 1748
1747 1789
1747 1790
1748 1749
1749 1820
1750 1802
1751 1805
1752 1807
1753 1794
1753 1795
1754 1777
1754 1778
1755 1887
1755 1888
1756 1795
1756 1796
1757 1810
1758 1773
1758 1774
1759 1812
1760 1791
1760 1792
1761 1813
1762 1783
1762 1784
1763 1816
1764 1818
1765 1797
1765 1798
1766 1951
1766 1952
1767 1768
1767 1856
1768 1769
1769 1859
1770 1771
1770 1867
1771 1772
1772 1870
1773 1774
1773 1861
1774 1775
1775 1839
1775 1840
1776 1777
1776 1857
1777 1778
1778 1831
1778 1832
1779 1780
1779 1868
1780 1781
1781 1849
1781 1850
1782 1783
1782 1836
1782 1837
1783 1784
1784 1865
1785 1786
1785 1828
1785 1829
1786 1787
1787 1860
1788 1789
1788 1846
1788 1847
1789 1790
1790 1871
1791 1792
1791 1863
1792 1793
1793 1842
1793 1843
1794 1795
1794 1858
1795 1796
1796 1834
1796 1835
1797 1798
1797 1869
1798 1799
1799 1852
1799 1853
1800 1854
1801 1821
1801 1822
1802 1924
1802 1925
1803 1855
1804 1824
1804 1825
1805 1927
1805 1928
1806 1827
1806 1828
1807 1930
1807 1931
1808 1830
1808 1831
1809 1833
1809 1834
1810 1935
1810 1936
1811 1862
1812 1837
1812 1838
1813 2003
1813 2004
1814 1864
1815 1866
1816 1945
1816 1946
1817 1845
1817 1846
1818 1948
1818 1949
1819 1848
1819 1849
1820 1851
1820 1852
1821 1822
1821 1905
1822 1823
1823 1881
1823 1882
1824 1825
1824 1906
1825 1826
1826 1899
1826 1900
1827 1828
1827 1907
1828 1829
1829 1891
1829 1892
1830 1831
1830 1878
1830 1879
1831 1832
1832 1909
1833 1834
1833 1896
1833 1897
1834 1835
1835 1911
1836 1837
1836 1888
1836 1889
1837 1838
1838 1912
1839 1840
1839 1913
1840 1841
1841 1884
1841 1885
1842 1843
1842 1915
1843 1844
1844 1902
1844 1903
1845 1846
1845 1916
1846 1847
1847 1894
1847 1895
1848 1849
1848 1918
1849 1850
1850 1919
1851 1852
1851 1921
1852 1853
1853 1922
1854 1872
1854 1873
1855 1890
1855 1891
1856 1873
1856 1874
1857 1882
1857 1883
1858 1900
1858 1901
1859 1908
1860 1910
1861 1879
1861 1880
1862 1985
1862 1986
1863 1897
1863 1898
1864 1875
1864 1876
1865 1914
1866 1893
1866 1894
1867 1876
1867 1877
1868 1885
1868 1886
1869 1903
1869 1904
1870 1917
1871 1920
1872 1873
1872 1953
1873 1874
1874 1926
1874 1927
1875 1876
1875 1965
1876 1877
1877 1944
1877 1945
1878 1879
1878 1961
1879 1880
1880 1936
1880 1937
1881 1882
1881 1923
1881 1924
1882 1883
1883 1958
1884 1885
1884 1941
1884 1942
1885 1886
1886 1970
1887 1888
1887 1933
1887 1934
1888 1889
1889 1964
1890 1891
1890 1955
1891 1892
1892 1929
1892 1930
1893 1894
1893 1967
1894 1895
1895 1947
1895 1948
1896 1897
1896 1962
1897 1898
1898 1939
1898 1940
1899 1900
1899 1957
1900 1901
1901 1960
1902 1903
1902 1969
1903 1904
1904 1972
1905 1954
1906 1956
1907 1959
1908 2073
1908 2074
1909 1932
1909 1933
1910 2035
1910 2036
1911 1963
1912 1938
1912 1939
1913 1966
1914 1942
1914 1943
1915 1968
1916 1971
1917 2148
1917 2149
1918 1973
1919 1950
1919 1951
1920 2053
1920 2054
1921 1974
1922 1975
1923 1924
1923 2007
1924 1925
1925 2008
1926 1927
1926 2011
1927 1928
1928 1979
1928 1980
1929 1930
1929 2013
1930 1931
1931 1997
1931 1998
1932 1933
1932 2015
1933 1934
1934 1989
1934 1990
1935 1936
1935 1976
1935 1977
1936 1937
1937 2016
1938 1939
1938 1994
1938 1995
1939 1940
1940 2018
1941 1942
1941 1986
1941 1987
1942 1943
1943 2019
1944 1945
1944 2020
1945 1946
1946 1982
1946 1983
1947 1948
1947 2022
1948 1949
1949 2000
1949 2001
1950 1951
1950 2024
1951 1952
1952 1992
1952 1993
1953 2006
1954 2076
1954 2077
1955 2009
1956 2094
1956 2095
1957 2010
1958 2012
1959 1988
1959 1989
1960 2014
1961 1980
1961 1981
1962 1998
1962 1999
1963 2100
1963 2101
1964 2017
1965 1977
1965 1978
1966 2079
1966 2080
1967 1995
1967 1996
1968 2097
1968 2098
1969 2004
1969 2005
1970 2021
1971 1991
1971 1992
1972 2023
1973 1983
1973 1984
1974 2001
1974 2002
1975 2202
1975 2203
1976 1977
1976 2062
1977 1978
1978 2064
1979 1980
1979 2028
1979 2029
1980 1981
1981 2059
1982 1983
1982 2046
1982 2047
1983 1984
1984 2070
1985 1986
1985 2038
1985 2039
1986 1987
1987 2065
1988 1989
1988 2057
1989 1990
1990 2034
1990 2035
1991 1992
1991 2068
1992 1993
1993 2052
1993 2053
1994 1995
1994 2063
1995 1996
1996 2044
1996 2045
1997 1998
1997 2031
1997 2032
1998 1999
1999 2061
2000 2001
2000 2049
2000 2050
2001 2002
2002 2072
2003 2004
2003 2041
2003 2042
2004 2005
2005 2066
2006 2121
2006 2122
2007 2055
2008 2025
2008 2026
2009 2026
2009 2027
2010 2229
2010 2230
2011 2056
2012 2029
2012 2030
2013 2058
2014 2032
2014 2033
2015 2060
2016 2037
2016 2038
2017 2137
2017 2138
2018 2040
2018 2041
2019 2043
2019 2044
2020 2067
2021 2047
2021 2048
2022 2069
2023 2050
2023 2051
2024 2071
2025 2026
2025 2085
2025 2086
2026 2027
2027 2103
2028 2029
2028 2077
2028 2078
2029 2030
2030 2104
2031 2032
2031 2095
2031 2096
2032 2033
2033 2105
2034 2035
2034 2107
2035 2036
2036 2091
2036 2092
2037 2038
2037 2109
2038 2039
2039 2083
2039 2084
2040 2041
2040 2110
2041 2042
2042 2101
2042 2102
2043 2044
2043 2088
2043 2089
2044 2045
2045 2113
2046 2047
2046 2080
2046 2081
2047 2048
2048 2115
2049 2050
2049 2098
2049 2099
2050 2051
2051 2116
2052 2053
2052 2118
2053 2054
2054 2119
2055 2226
2055 2227
2056 2171
2056 2172
2057 2086
2057 2087
2058 2189
2058 2190
2059 2106
2060 2082
2060 2083
2061 2108
2062 2074
2062 2075
2063 2092
2063 2093
2064 2111
2065 2112
2066 2114
2067 2174
2067 2175
2068 2089
2068 2090
2069 2192
2069 2193
2070 2117
2071 2184
2071 2185
2072 2120
2073 2074
2073 2130
2073 2131
2074 2075
2075 2161
2076 2077
2076 2122
2076 2123
2077 2078
2078 2155
2079 2080
2079 2140
2079 2141
2080 2081
2081 2167
2082 2083
2082 2158
2083 2084
2084 2136
2084 2137
2085 2086
2085 2154
2086 2087
2087 2128
2087 2129
2088 2089
2088 2166
2089 2090
2090 2146
2090 2147
2091 2092
2091 2133
2091 2134
2092 2093
2093 2163
2094 2095
2094 2125
2094 2126
2095 2096
2096 2156
2097 2098
2097 2143
2097 2144
2098 2099
2099 2168
2100 2101
2100 2160
2101 2102
2102 2165
2103 2124
2103 2125
2104 2127
2104 2128
2105 2157
2106 2131
2106 2132
2107 2159
2108 2134
2108 2135
2109 2162
2110 2164
2111 2139
2111 2140
2112 2244
2112 2245
2113 2142
2113 2143
2114 2247
2114 2248
2115 2145
2115 2146
2116 2169
2117 2149
2117 2150
2118 2170
2119 2151
2119 2152
2120 2152
2120 2153
2121 2122
2121 2204
2122 2123
2123 2205
2124 2125
2124 2207
2125 2126
2126 2208
2127 2128
2127 2180
2127 2181
2128 2129
2129 2210
2130 2131
2130 2172
2130 2173
2131 2132
2132 2212
2133 2134
2133 2190
2133 2191
2134 2135
2135 2213
2136 2137
2136 2215
2137 2138
2138 2186
2138 2187
2139 2140
2139 2218
2140 2141
2141 2178
2141 2179
2142 2143
2142 2219
2143 2144
2144 2196
2144 2197
2145 2146
2145 2183
2145 2184
2146 2147
2147 2221
2148 2149
2148 2175
2148 2176
2149 2150
2150 2223
2151 2152
2151 2193
2151 2194
2152 2153
2153 2224
2154 2206
2155 2209
2156 2211
2157 2198
2157 2199
2158 2181
2158 2182
2159 2291
2159 2292
2160 2199
2160 2200
2161 2214
2162 2177
2162 2178
2163 2216
2164 2195
2164 2196
2165 2217
2166 2187
2166 2188
2167 2220
2168 2222
2169 2201
2169 2202
2170 2355
2170 2356
2171 2172
2171 2260
2172 2173
2173 2263
2174 2175
2174 2271
2175 2176
2176 2274
2177 2178
2177 2265
2178 2179
2179 2243
2179 2244
2180 2181
2180 2261
2181 2182
2182 2235
2182 2236
2183 2184
2183 2272
2184 2185
2185 2253
2185 2254
2186 2187
2186 2240
2186 2241
2187 2188
2188 2269
2189 2190
2189 2232
2189 2233
2190 2191
2191 2264
2192 2193
2192 2250
2192 2251
2193 2194
2194 2275
2195 2196
2195 2267
2196 2197
2197 2246
2197 2247
2198 2199
2198 2262
2199 2200
2200 2238
2200 2239
2201 2202
2201 2273
2202 2203
2203 2256
2203 2257
2204 2258
2205 2225
2205 2226
2206 2328
2206 2329
2207 2259
2208 2228
2208 2229
2209 2331
2209 2332
2210 2231
2210 2232
2211 2334
2211 2335
2212 2234
2212 2235
2213 2237
2213 2238
2214 2339
2214 2340
2215 2266
2216 2241
2216 2242
2217 2407
2217 2408
2218 2268
2219 2270
2220 2349
2220 2350
2221 2249
2221 2250
2222 2352
2222 2353
2223 2252
2223 2253
2224 2255
2224 2256
2225 2226
2225 2309
2226 2227
2227 2285
2227 2286
2228 2229
2228 2310
2229 2230
2230 2303
2230 2304
2231 2232
2231 2311
2232 2233
2233 2295
2233 2296
2234 2235
2234 2282
2234 2283
2235 2236
2236 2313
2237 2238
2237 2300
2237 2301
2238 2239
2239 2315
2240 2241
2240 2292
2240 2293
2241 2242
2242 2316
2243 2244
2243 2317
2244 2245
2245 2288
2245 2289
2246 2247
2246 2319
2247 2248
2248 2306
2248 2307
2249 2250
2249 2320
2250 2251
2251 2298
2251 2299
2252 2253
2252 2322
2253 2254
2254 2323
2255 2256
2255 2325
2256 2257
2257 2326
2258 2276
2258 2277
2259 2294
2259 2295
2260 2277
2260 2278
2261 2286
2261 2287
2262 2304
2262 2305
2263 2312
2264 2314
2265 2283
2265 2284
2266 2389
2266 2390
2267 2301
2267 2302
2268 2279
2268 2280
2269 2318
2270 2297
2270 2298
2271 2280
2271 2281
2272 2289
2272 2290
2273 2307
2273 2308
2274 2321
2275 2324
2276 2277
2276 2357
2277 2278
2278 2330
2278 2331
2279 2280
2279 2369
2280 2281
2281 2348
2281 2349
2282 2283
2282 2365
2283 2284
2284 2340
2284 2341
2285 2286
2285 2327
2285 2328
2286 2287
2287 2362
2288 2289
2288 2345
2288 2346
2289 2290
2290 2374
2291 2292
2291 2337
2291 2338
2292 2293
2293 2368
2294 2295
2294 2359
2295 2296
2296 2333
2296 2334
2297 2298
2297 2371
2298 2299
2299 2351
2299 2352
2300 2301
2300 2366
2301 2302
2302 2343
2302 2344
2303 2304
2303 2361
2304 2305
2305 2364
2306 2307
2306 2373
2307 2308
2308 2376
2309 2358
2310 2360
2311 2363
2312 2477
2312 2478
2313 2336
2313 2337
2314 2439
2314 2440
2315 2367
2316 2342
2316 2343
2317 2370
2318 2346
2318 2347
2319 2372
2320 2375
2321 2567
2322 2377
2323 2354
2323 2355
2324 2457
2324 2458
2325 2378
2326 2379
2327 2328
2327 2411
2328 2329
2329 2412
2330 2331
2330 2415
2331 2332
2332 2383
2332 2384
2333 2334
2333 2417
2334 2335
2335 2401
2335 2402
2336 2337
2336 2419
2337 2338
2338 2393
2338 2394
2339 2340
2339 2380
2339 2381
2340 2341
2341 2420
2342 2343
2342 2398
2342 2399
2343 2344
2344 2422
2345 2346
2345 2390
2345 2391
2346 2347
2347 2423
2348 2349
2348 2424
2349 2350
2350 2386
2350 2387
2351 2352
2351 2426
2352 2353
2353 2404
2353 2405
2354 2355
2354 2428
2355 2356
2356 2396
2356 2397
2357 2410
2358 2480
2358 2481
2359 2413
2360 2498
2360 2499
2361 2414
2362 2416
2363 2392
2363 2393
2364 2418
2365 2384
2365 2385
2366 2402
2366 2403
2367 2504
2367 2505
2368 2421
2369 2381
2369 2382
2370 2483
2370 2484
2371 2399
2371 2400
2372 2501
2372 2502
2373 2408
2373 2409
2374 2425
2375 2395
2375 2396
2376 2427
2377 2387
2377 2388
2378 2405
2378 2406
2379 2573
2380 2381
2380 2466
2381 2382
2382 2468
2383 2384
2383 2432
2383 2433
2384 2385
2385 2463
2386 2387
2386 2450
2386 2451
2387 2388
2388 2474
2389 2390
2389 2442
2389 2443
2390 2391
2391 2469
2392 2393
2392 2461
2393 2394
2394 2438
2394 2439
2395 2396
2395 2472
2396 2397
2397 2456
2397 2457
2398 2399
2398 2467
2399 2400
2400 2448
2400 2449
2401 2402
2401 2435
2401 2436
2402 2403
2403 2465
2404 2405
2404 2453
2404 2454
2405 2406
2406 2476
2407 2408
2407 2445
2407 2446
2408 2409
2409 2470
2410 2525
2411 2459
2412 2429
2412 2430
2413 2430
2413 2431
2414 2531
2415 2460
2416 2433
2416 2434
2417 2462
2418 2436
2418 2437
2419 2464
2420 2441
2420 2442
2421 2549
2422 2444
2422 2445
2423 2447
2423 2448
2424 2471
2425 2451
2425 2452
2426 2473
2427 2454
2427 2455
2428 2475
2429 2430
2429 2489
2429 2490
2430 2431
2431 2507
2432 2433
2432 2481
2432 2482
2433 2434
2434 2508
2435 2436
2435 2499
2435 2500
2436 2437
2437 2509
2438 2439
2438 2511
2439 2440
2440 2495
2440 2496
2441 2442
2441 2513
2442 2443
2443 2487
2443 2488
2444 2445
2444 2514
2445 2446
2446 2505
2446 2506
2447 2448
2447 2492
2447 2493
2448 2449
2449 2517
2450 2451
2450 2484
2450 2485
2451 2452
2452 2519
2453 2454
2453 2502
2453 2503
2454 2455
2455 2520
2456 2457
2456 2522
2457 2458
2458 2523
2459 2527
2460 2532
2461 2490
2461 2491
2462 2536
2463 2510
2464 2486
2464 2487
2465 2512
2466 2478
2466 2479
2467 2496
2467 2497
2468 2515
2469 2516
2470 2518
2471 2560
2472 2493
2472 2494
2473 2564
2474 2521
2475 2569
2476 2524
2477 2478
2477 2539
2478 2479
2479 2546
2480 2481
2480 2526
2481 2482
2482 2533
2483 2484
2483 2554
2484 2485
2485 2561
2486 2487
2486 2541
2487 2488
2488 2548
2489 2490
2489 2528
2490 2491
2491 2535
2492 2493
2492 2556
2493 2494
2494 2563
2495 2496
2495 2543
2496 2497
2497 2550
2498 2499
2498 2530
2499 2500
2500 2537
2501 2502
2501 2558
2502 2503
2503 2565
2504 2505
2504 2545
2505 2506
2506 2552
2507 2529
2508 2534
2509 2538
2510 2540
2511 2542
2512 2544
2513 2547
2514 2551
2515 2553
2516 2555
2517 2557
2518 2559
2519 2562
2520 2566
2521 2568
2522 2570
2523 2571
2524 2572
